40
292
20
6
9
21
79
92
4
77
69
41
73
41
26
79
4
7
43
15
58
86
82
0 1
0 4
0 5
0 8
0 11
0 13
0 14
0 17
0 24
0 25
0 26
0 28
0 31
0 35
0 36
0 37
1 2
1 3
1 5
1 6
1 9
1 10
1 13
1 18
1 20
1 22
1 23
1 24
1 25
1 35
1 38
1 39
2 4
2 8
2 13
2 14
2 15
2 18
2 21
2 22
2 24
2 27
2 31
2 33
2 39
3 4
3 12
3 14
3 16
3 17
3 21
3 28
3 30
3 32
3 34
4 8
4 12
4 17
4 19
4 21
4 24
4 25
4 26
4 28
4 33
4 34
4 37
4 38
5 6
5 7
5 8
5 9
5 10
5 12
5 14
5 19
5 22
5 24
5 28
5 30
5 31
5 34
5 36
5 38
6 10
6 12
6 13
6 15
6 17
6 18
6 19
6 24
6 26
6 31
6 32
6 39
7 12
7 13
7 15
7 17
7 21
7 22
7 27
7 28
7 29
7 30
7 32
7 35
7 38
8 9
8 10
8 13
8 15
8 21
8 22
8 23
8 24
8 25
8 28
8 31
8 37
9 15
9 17
9 25
9 26
9 27
9 30
9 36
9 38
9 39
10 11
10 12
10 14
10 16
10 21
10 22
10 24
10 27
11 12
11 17
11 20
11 21
11 22
11 25
11 27
11 28
11 33
12 15
12 21
12 24
12 28
12 32
12 33
12 35
12 39
13 14
13 15
13 17
13 19
13 20
13 21
13 22
13 23
13 25
13 29
13 30
13 32
13 33
13 34
13 36
13 37
13 38
14 16
14 17
14 18
14 22
14 23
14 26
14 27
14 34
14 38
14 39
15 16
15 21
15 22
15 27
15 34
15 38
16 19
16 20
16 22
16 31
16 34
16 35
16 37
17 19
17 20
17 27
17 28
17 30
17 31
17 33
17 34
18 20
18 21
18 22
18 24
18 30
18 32
19 24
19 26
19 28
19 31
19 33
19 37
19 39
20 21
20 22
20 25
20 26
20 33
20 34
20 35
20 37
20 38
21 24
21 25
21 26
21 27
21 28
21 29
21 31
21 32
21 34
21 35
21 37
21 38
21 39
22 26
22 28
22 33
22 35
22 37
22 38
22 39
23 24
23 27
23 29
23 30
23 31
23 32
23 34
23 36
24 28
24 30
24 33
24 35
25 31
25 33
25 35
25 36
25 37
25 38
26 32
27 33
28 35
28 36
28 37
28 38
29 30
29 35
30 32
30 34
30 35
30 36
30 37
31 32
31 34
31 37
31 38
31 39
32 35
32 39
33 35
33 38
34 35
34 36
34 38
35 38
36 37
37 38
38 39
9 14
24 29
34 20
30 26
6 22
36 4
15 17
16 0
38 37
31 1
27 8
19 5
11 7
39 13
32 21
25 3
33 23
10 28
12 2
18 35
